Total weight: 1289.7800365455446
Route 1: 0 26 12 29 76 0 
Route 2: 0 92 98 85 61 17 84 0 
Route 3: 0 27 69 31 70 90 63 32 10 0 
Route 4: 0 82 47 19 7 0 
Route 5: 0 39 23 67 56 4 25 55 54 24 80 0 
Route 6: 0 28 33 9 34 78 79 50 0 
Route 7: 0 40 21 73 74 57 43 42 97 0 
Route 8: 0 99 5 83 8 45 91 100 37 87 0 
Route 9: 0 88 62 11 64 49 36 46 48 60 18 0 
Route 10: 0 1 51 71 66 65 35 77 68 0 
Route 11: 0 2 15 41 22 75 72 0 
Route 12: 0 3 81 20 30 0 
Route 13: 0 52 89 0 
Route 14: 0 95 59 93 16 86 38 44 14 0 
Route 15: 0 53 58 13 94 96 6 0 
